letting n =  10
letting blocks =  [[1, 1], [1, 9], [2, 9], [2, 10], [3, 5], [3, 10], [4, 1], [4, 2], [4, 5], [4, 6], [5, 8], [5, 10], [6, 1], [6, 2], [6, 6], [6, 10], [7, 1], [7, 2], [7, 5], [7, 6], [7, 8], [7, 10], [8, 5], [8, 9], [9, 4], [10, 1]]
